\ Model OptModel_copy
\ LP format - for model browsing. Use MPS format to capture full model detail.
Minimize
 
Subject To
 R82846: q_hp4602 <= 0
 R82849: - 4.5 p_ghp4602 + q_ghp4602 <= 0
 R82850: - p_ghp_inst + p_ghp4602 <= 0
 R82853: q_ct4602 + delta_q_ct4602 = 0
 R184851: q_hp4602 + q_ghp4602 + q_ct4602 = 2.47934e+08
Bounds
 q_hp4602 free
 -infinity <= p_ghp_inst <= 1000
 p_ghp4602 free
 q_ghp4602 free
 q_ct4602 free
 delta_q_ct4602 >= -1e+07
End
